# 3d Lennard-Jones melt

units		lj
atom_style	atomic

lattice		fcc 0.8
region		box block 0 10 0 10 0 10
create_box	1 box
create_atoms	1 box
mass		1 1.0

velocity	all create 3.0 87287

pair_style	lj/cut 2.5
pair_coeff	1 1 1.0 1.0 2.5

thermo_style custom step temp pe etotal press vol

neighbor	0.3 bin
neigh_modify	every 20 delay 0 check no

fix		1 all nvt temp 0.1 0.1 1.0

dump		id all atom 100 dump.lammpstrj

thermo		100
run		10000
